c ---- [ banner ] ------------------------------------------------------------
c
c Kissat SAT Solver
c 
c Copyright (c) 2021-2024 Armin Biere University of Freiburg
c Copyright (c) 2019-2021 Armin Biere Johannes Kepler University Linz
c 
c Version 4.0.1 43f02cf3e992cb44653b35e5cb26f93281552ae0
c gcc (Ubuntu 13.2.0-23ubuntu4) 13.2.0 -W -Wall -O3 -DNDEBUG
c Thu Sep 12 12:27:46 CEST 2024 Linux abryzen9 6.8.0-41-generic x86_64
c
c ---- [ parsing ] -----------------------------------------------------------
c
c opened and reading DIMACS file:
c
c   /data/artifact/AMulet2.0_artifact/exp4/cnf_sopb_64/64_64_U_SP_CWT_CK_GenMul_sopb.cnf
c
c parsed 'p cnf 32770 137545' header
c closing input after reading 2723752 bytes (3 MB)
c finished parsing after 0.02 seconds
c
c ---- [ options ] -----------------------------------------------------------
c
c --stable=0                       (different from default '1')
c
c ---- [ solving ] -----------------------------------------------------------
c
c  seconds switched rate     size/glue tier1  binary           remaining
c         MB reductions conflicts size  tier2     irredundant
c          level restarts redundant glue  trail           variables
c
c *  0.02 10 0 0 0  0 0   0   0 0.0 0 0 0 0 0% 28209 109334 32767 100%
c (  0.03 12 0 0 0  0 0   0   0 0.0 0 0 0 0 0% 28209 109334 32767 100%
c .  0.04 12 0 0 0  0 0   0   0 0.0 0 0 0 0 0% 28205 109334 32767 100%
c c  0.09 18 0 0 0  0 0   0   0 0.0 0 0 0 0 0% 32589 102509 30579 93%
c d  0.10 18 0 0 0  0 0   0   0 0.0 0 0 0 0 0% 28213 102509 30579 93%
c =  0.14 18 0 0 0  0 0   0   0 0.0 0 0 0 0 0% 28187 102509 29955 91%
c d  0.15 18 0 0 0  0 0   0   0 0.0 0 0 0 0 0% 26939 102509 29955 91%
c f  0.22 19 0 0 0  0 0   0   0 0.0 0 0 0 0 0% 28400 98524 31781 97%
c e  0.35 25 0 0 0  0 0   0   0 0.0 0 0 0 0 0% 21344 103090 23224 71%
c )  0.35 25 0 0 0  0 0   0   0 0.0 0 0 0 0 0% 21344 103090 23224 71%
c {  0.36 25 0 0 0  0 0   0   0 0.0 0 0 2 6 0% 21344 103090 23224 71%
c -  0.64 26 176 0 1 268 34 1000 729 3.3 17 5 3 8 24% 21427 103084 23224 71%
c -  0.87 26 352 0 2 384 38 2000 1448 3.3 16 5 3 9 26% 21488 103082 23224 71%
c c  1.10 22 325 0 2 510 39 2506 1905 3.5 18 5 3 9 27% 22131 101760 22780 70%
c d  1.10 22 325 0 2 510 39 2506 1903 3.5 18 5 3 9 27% 21243 101760 22780 70%
c u  1.11 22 325 0 2 510 39 2506 1423 3.5 18 5 3 9 27% 19486 101760 22780 70%
c v  1.13 22 325 0 2 510 39 2506 1218 3.5 18 5 3 9 27% 19486 101760 22780 70%
c w  1.15 22 325 0 2 510 39 2506 1218 3.5 18 5 3 9 27% 19486 101760 22780 70%
c x  1.16 22 325 0 2 510 39 2506 1218 3.5 18 5 3 9 27% 19588 101541 22779 70%
c =  1.23 22 325 0 2 510 39 2506 1218 3.5 18 5 3 9 27% 19622 101538 22762 69%
c
c  seconds   switched   rate       size/glue tier1    binary           remaining
c         MB  reductions conflicts       size  tier2      irredundant
c           level restarts    redundant    glue   trail           variables
c
c d  1.24 22 325 0 2 510 39 2506 1218 3.5 18 5 3 9 27% 19583 101538 22762 69%
c t  1.25 22 325 0 2 510 39 2506 1218 3.5 18 5 3 9 27% 19566 101538 22762 69%
c f  1.28 22 325 0 2 510 39 2506 1218 3.5 18 5 3 9 27% 20973 98692 23695 72%
c u  1.34 23 325 0 2 510 39 2506 1105 3.5 18 5 3 9 27% 20975 98692 23695 72%
c v  1.35 23 325 0 2 510 39 2506 1062 3.5 18 5 3 9 27% 20975 98692 23695 72%
c w  1.37 23 325 0 2 510 39 2506 1058 3.5 18 5 3 9 27% 20975 98692 23695 72%
c x  1.39 23 325 0 2 510 39 2506 1058 3.5 18 5 3 9 27% 20975 98682 23695 72%
c =  1.45 23 325 0 2 510 39 2506 1058 3.5 18 5 3 9 27% 21787 98671 23289 71%
c d  1.46 23 325 0 2 510 39 2506 1052 3.5 18 5 3 9 27% 20952 98671 23289 71%
c t  1.47 23 325 0 2 510 39 2506 1052 3.5 18 5 3 9 27% 20938 98671 23289 71%
c f  1.49 23 325 0 2 510 39 2506 1052 3.5 18 5 3 9 27% 21067 98241 23447 72%
c i  1.50 23 325 0 2 510 39 2506 1052 3.5 18 5 3 9 27% 21067 98241 23447 72%
c i  1.57 23 314 0 2 577 41 2707 1228 3.5 19 5 3 9 28% 21077 98240 23446 72%
c -  1.70 23 344 0 3 673 42 3414 1594 3.8 21 5 3 9 29% 21106 98240 23446 72%
c -  1.88 23 355 0 4 846 39 5150 2714 3.5 18 5 3 9 28% 21216 98231 23446 72%
c -  2.22 23 319 0 5 1055 37 7152 3841 3.3 18 5 3 8 28% 21331 98221 23446 72%
c i  2.22 23 320 0 5 1055 36 7197 3878 3.3 17 5 3 8 28% 21336 98221 23445 72%
c d  2.30 23 315 0 5 1091 35 7712 4277 3.3 17 5 3 8 28% 21311 98218 23414 71%
c d  2.31 23 315 0 5 1091 35 7712 4277 3.3 17 5 3 8 28% 21309 98218 23413 71%
c u  2.33 23 315 0 5 1091 35 7712 3172 3.3 17 5 3 8 28% 21321 98218 23412 71%
c
c  seconds   switched    rate       size/glue tier1    binary          remaining
c         MB  reductions  conflicts       size  tier2      irredundant
c           level  restarts    redundant    glue   trail          variables
c
c v  2.36 23 315 0 5 1091 35 7712 2851 3.3 17 5 3 8 28% 21321 98218 23412 71%
c w  2.38 23 315 0 5 1091 35 7712 2843 3.3 17 5 3 8 28% 21321 98218 23412 71%
c =  2.51 23 315 0 5 1091 35 7712 2843 3.3 17 5 3 8 28% 22957 98203 22594 69%
c d  2.53 23 315 0 5 1091 35 7712 2785 3.3 17 5 3 8 28% 21231 98203 22594 69%
c t  2.54 23 315 0 5 1091 35 7712 2785 3.3 17 5 3 8 28% 21207 98203 22594 69%
c f  2.58 23 315 0 5 1091 35 7712 2785 3.3 17 5 3 8 28% 21323 97526 22821 70%
c u  2.65 23 315 0 5 1091 35 7712 2570 3.3 17 5 3 8 28% 21314 97526 22821 70%
c v  2.67 23 315 0 5 1091 35 7712 2507 3.3 17 5 3 8 28% 21314 97526 22821 70%
c w  2.69 23 315 0 5 1091 35 7712 2502 3.3 17 5 3 8 28% 21314 97526 22821 70%
c x  2.72 23 315 0 5 1091 35 7712 2501 3.3 17 5 3 8 28% 21330 96770 22820 70%
c =  2.85 23 315 0 5 1091 35 7712 2501 3.3 17 5 3 8 28% 21538 96770 22716 69%
c d  2.86 23 315 0 5 1091 35 7712 2499 3.3 17 5 3 8 28% 21280 96769 22715 69%
c t  2.88 23 315 0 5 1091 35 7712 2499 3.3 17 5 3 8 28% 21278 96769 22715 69%
c f  2.93 23 315 0 5 1091 35 7712 2499 3.3 17 5 3 8 28% 21316 96646 22766 69%
c i  2.94 23 315 0 5 1091 35 7712 2499 3.3 17 5 3 8 28% 21316 96646 22766 69%
c -  3.22 23 319 0 6 1169 34 9388 3487 3.2 17 5 3 8 28% 21395 96638 22766 69%
c o  3.33 23 327 0 6 1207 34 10010 4020 3.2 16 5 3 8 28% 21427 96635 22766 69%
c -  3.94 23 302 0 7 1476 34 11837 5068 3.3 18 5 3 8 29% 21489 96634 22766 69%
c s  4.06 23 306 0 7 1511 33 12520 5629 3.2 17 5 3 8 29% 21519 89175 22766 69%
c e  4.14 23 306 0 7 1511 33 12520 5629 3.2 17 5 3 8 29% 20071 90454 21457 65%
c
c  seconds   switched    rate        size/glue tier1    binary          remaining
c         MB  reductions   conflicts       size  tier2      irredundant
c           level  restarts     redundant    glue   trail          variables
c
c 2  4.14 23 306 0 7 1511 33 12520 5629 3.2 17 5 3 8 29% 20070 90454 21457 65%
c s  4.15 23 306 0 7 1511 33 12520 5629 3.2 17 5 3 8 29% 20083 90315 21457 65%
c e  4.15 23 306 0 7 1511 33 12520 5629 3.2 17 5 3 8 29% 20038 90347 21437 65%
c ^  4.15 23 306 0 7 1511 33 12520 5629 3.2 17 5 3 8 29% 20038 90347 21437 65%
c -  4.65 23 292 0 8 1734 33 14484 6270 3.3 18 5 3 8 29% 20094 90347 21437 65%
c d  5.03 23 285 0 8 1917 33 15795 7412 3.4 19 6 3 8 29% 20095 90347 21417 65%
c u  5.08 23 285 0 8 1917 33 15795 5812 3.4 19 6 3 8 29% 20106 90347 21417 65%
c v  5.12 23 285 0 8 1917 33 15795 5270 3.4 19 6 3 8 29% 20106 90347 21417 65%
c w  5.15 23 285 0 8 1917 33 15795 5270 3.4 19 6 3 8 29% 20106 90347 21417 65%
c x  5.20 23 285 0 8 1917 33 15795 5268 3.4 19 6 3 8 29% 20191 90103 21417 65%
c =  5.36 23 285 0 8 1917 33 15795 5268 3.4 19 6 3 8 29% 20727 90093 21149 65%
c d  5.37 23 285 0 8 1917 33 15795 5249 3.4 19 6 3 8 29% 19989 90093 21149 65%
c t  5.39 23 285 0 8 1917 33 15795 5249 3.4 19 6 3 8 29% 19933 90093 21149 65%
c f  5.47 23 285 0 8 1917 33 15795 5249 3.4 19 6 3 8 29% 19996 89890 21207 65%
c u  5.54 23 285 0 8 1917 33 15795 4860 3.4 19 6 3 8 29% 20006 89890 21207 65%
c v  5.58 23 285 0 8 1917 33 15795 4756 3.4 19 6 3 8 29% 20007 89890 21207 65%
c w  5.67 23 285 0 8 1917 33 15795 4753 3.4 19 6 3 8 29% 20007 89890 21207 65%
c x  5.71 23 285 0 8 1917 33 15795 4752 3.4 19 6 3 8 29% 20047 89420 21207 65%
c =  5.92 23 285 0 8 1917 33 15795 4752 3.4 19 6 3 8 29% 20871 89420 20795 63%
c d  5.94 23 285 0 8 1917 33 15795 4706 3.4 19 6 3 8 29% 19954 89420 20795 63%
c
c  seconds   switched    rate        size/glue tier1    binary          remaining
c         MB  reductions   conflicts       size  tier2      irredundant
c           level  restarts     redundant    glue   trail          variables
c
c t  5.96 23 285 0 8 1917 33 15795 4706 3.4 19 6 3 8 29% 19877 89420 20795 63%
c f  6.00 23 285 0 8 1917 33 15795 4706 3.4 19 6 3 8 29% 19872 89277 20838 64%
c -  6.35 23 276 0 9 2036 32 17313 5345 3.3 18 5 3 7 29% 19912 89277 20838 64%
c o  7.03 23 267 0 9 2305 32 20013 7705 3.4 19 6 3 7 29% 19988 89277 20838 64%
c -  7.18 23 266 0 10 2385 33 20313 6821 3.5 19 6 2 7 29% 19993 89277 20838 64%
c -  7.75 23 274 0 11 2638 33 23475 8319 3.5 20 6 2 7 29% 20117 89274 20838 64%
c s  7.90 23 270 0 11 2702 32 25024 9672 3.4 19 6 2 7 29% 20186 87174 20838 64%
c e  8.01 23 270 0 11 2702 32 25024 9672 3.4 19 6 2 7 29% 17119 91504 19291 59%
c 2  8.01 23 270 0 11 2702 32 25024 9672 3.4 19 6 2 7 29% 17116 91504 19291 59%
c s  8.03 23 270 0 11 2702 32 25024 9672 3.4 19 6 2 7 29% 17192 90883 19291 59%
c e  8.05 23 270 0 11 2702 32 25024 9672 3.4 19 6 2 7 29% 17146 90953 19258 59%
c ^  8.05 23 270 0 11 2702 32 25024 9672 3.4 19 6 2 7 29% 17146 90953 19258 59%
c -  8.50 23 263 0 12 2869 31 26792 8650 3.5 20 6 2 7 29% 17199 90953 19258 59%
c c  8.60 23 262 0 12 2901 31 26923 8770 3.5 20 6 2 7 29% 17219 90917 19249 59%
c d  8.60 23 262 0 12 2901 31 26923 8748 3.5 20 6 2 7 29% 17156 90917 19222 59%
c u  8.64 23 262 0 12 2901 31 26923 7553 3.5 20 6 2 7 29% 17174 90917 19222 59%
c v  8.68 23 262 0 12 2901 31 26923 6649 3.5 20 6 2 7 29% 17177 90917 19222 59%
c w  8.70 23 262 0 12 2901 31 26923 6645 3.5 20 6 2 7 29% 17177 90917 19222 59%
c x  8.75 23 262 0 12 2901 31 26923 6642 3.5 20 6 2 7 29% 17200 90319 19222 59%
c =  8.95 23 262 0 12 2901 31 26923 6642 3.5 20 6 2 7 29% 20446 90319 17599 54%
c
c  seconds   switched     rate        size/glue tier1    binary          remaining
c         MB   reductions   conflicts       size  tier2      irredundant
c           level   restarts     redundant    glue   trail          variables
c
c d  8.96 23 262 0 12 2901 31 26923 6435 3.5 20 6 2 7 29% 17119 90319 17598 54%
c t  8.97 23 262 0 12 2901 31 26923 6435 3.5 20 6 2 7 29% 16589 90319 17598 54%
c f  9.04 23 262 0 12 2901 31 26923 6435 3.5 20 6 2 7 29% 16672 89350 17742 54%
c u  9.10 23 262 0 12 2901 31 26923 5967 3.5 20 6 2 7 29% 16677 89350 17742 54%
c v  9.13 23 262 0 12 2901 31 26923 5779 3.5 20 6 2 7 29% 16678 89350 17742 54%
c w  9.14 23 262 0 12 2901 31 26923 5774 3.5 20 6 2 7 29% 16678 89350 17742 54%
c x  9.22 23 262 0 12 2901 31 26923 5772 3.5 20 6 2 7 29% 16726 83863 17742 54%
c =  9.38 23 262 0 12 2901 31 26923 5772 3.5 20 6 2 7 29% 17310 83857 17450 53%
c d  9.39 23 262 0 12 2901 31 26923 5755 3.5 20 6 2 7 29% 16720 83857 17450 53%
c t  9.40 23 262 0 12 2901 31 26923 5755 3.5 20 6 2 7 29% 16629 83857 17450 53%
c f  9.44 23 262 0 12 2901 31 26923 5755 3.5 20 6 2 7 29% 16625 83763 17466 53%
c -  9.78 23 260 0 13 3112 30 30256 7643 3.4 19 6 2 7 28% 16714 83761 17466 53%
c - 10.38 23 249 0 14 3485 30 33861 9671 3.3 19 6 2 6 28% 16784 83761 17466 53%
c - 11.13 23 239 0 15 3901 30 37602 11249 3.2 19 6 2 6 28% 16871 83758 17466 53%
c o 11.57 23 232 0 15 4088 29 40051 13366 3.2 19 6 2 6 28% 16930 83758 17466 53%
c d 11.82 23 234 0 15 4208 29 41250 14347 3.2 19 6 2 6 28% 16895 83758 17439 53%
c u 11.91 23 234 0 15 4208 29 41250 12370 3.2 19 6 2 6 28% 16911 83758 17439 53%
c v 11.98 23 234 0 15 4208 29 41250 11344 3.2 19 6 2 6 28% 16911 83758 17439 53%
c w 12.02 23 234 0 15 4208 29 41250 11344 3.2 19 6 2 6 28% 16911 83758 17439 53%
c x 12.10 23 234 0 15 4208 29 41250 11343 3.2 19 6 2 6 28% 16911 79332 17439 53%
c
c  seconds   switched     rate         size/glue tier1    binary          remaining
c         MB   reductions   conflicts        size  tier2      irredundant
c           level   restarts      redundant    glue   trail          variables
c
c = 12.36 23 234 0 15 4208 29 41250 11343 3.2 19 6 2 6 28% 16937 79332 17426 53%
c d 12.37 23 234 0 15 4208 29 41250 11321 3.2 19 6 2 6 28% 16898 79332 17421 53%
c t 12.39 23 234 0 15 4208 29 41250 11321 3.2 19 6 2 6 28% 16852 79332 17421 53%
c f 12.42 24 234 0 15 4208 29 41250 11321 3.2 19 6 2 6 28% 16855 79311 17424 53%
c u 12.50 24 234 0 15 4208 29 41250 10903 3.2 19 6 2 6 28% 16858 79311 17424 53%
c v 12.59 24 234 0 15 4208 29 41250 10153 3.2 19 6 2 6 28% 16859 79311 17424 53%
c w 12.65 24 234 0 15 4208 29 41250 10150 3.2 19 6 2 6 28% 16859 79311 17424 53%
c x 12.73 24 234 0 15 4208 29 41250 10150 3.2 19 6 2 6 28% 16861 78367 17424 53%
c = 13.00 24 234 0 15 4208 29 41250 10150 3.2 19 6 2 6 28% 17313 78367 17198 52%
c d 13.01 24 234 0 15 4208 29 41250 9990 3.2 19 6 2 6 28% 16836 78367 17198 52%
c t 13.04 24 234 0 15 4208 29 41250 9990 3.2 19 6 2 6 28% 16764 78367 17198 52%
c f 13.06 24 234 0 15 4208 29 41250 9990 3.2 19 6 2 6 28% 16778 78231 17217 53%
c - 13.17 24 233 0 16 4236 29 41475 8879 3.2 19 6 2 6 28% 16781 78231 17217 53%
c - 13.85 24 226 0 17 4538 28 45475 10919 3.2 18 6 2 6 27% 16868 78229 17217 53%
c - 14.72 24 221 0 18 4912 27 49599 13021 3.1 18 6 2 6 27% 16951 78224 17217 53%
c s 15.23 24 219 0 18 5106 27 52129 15186 3.1 18 6 2 6 28% 17005 75949 17217 53%
c e 15.34 24 219 0 18 5106 27 52129 15186 3.1 18 6 2 6 28% 15655 78395 16415 50%
c 2 15.34 24 219 0 18 5106 27 52129 15186 3.1 18 6 2 6 28% 15648 78395 16415 50%
c s 15.35 24 219 0 18 5106 27 52129 15186 3.1 18 6 2 6 28% 15659 78118 16415 50%
c e 15.36 24 219 0 18 5106 27 52129 15186 3.1 18 6 2 6 28% 15634 78156 16405 50%
c
c  seconds   switched     rate         size/glue tier1    binary          remaining
c         MB   reductions   conflicts        size  tier2      irredundant
c           level   restarts      redundant    glue   trail          variables
c
c ^ 15.36 24 219 0 18 5106 27 52129 15186 3.1 18 6 2 6 28% 15634 78156 16405 50%
c - 15.69 24 216 0 19 5254 27 53841 13924 3.1 18 6 2 6 27% 15662 78154 16405 50%
c - 16.57 24 213 0 20 5647 27 58201 15649 3.1 18 6 2 6 27% 15743 78153 16405 50%
c c 16.66 24 213 0 20 5657 27 58879 16190 3.1 18 6 2 6 27% 15877 77709 16324 50%
c d 16.67 24 213 0 20 5657 27 58879 16063 3.1 18 6 2 6 27% 15715 77709 16324 50%
c u 16.78 24 213 0 20 5657 27 58879 13442 3.1 18 6 2 6 27% 15711 77709 16324 50%
c v 16.87 24 213 0 20 5657 27 58879 12269 3.1 18 6 2 6 27% 15716 77709 16324 50%
c w 16.88 24 213 0 20 5657 27 58879 12230 3.1 18 6 2 6 27% 15716 77709 16324 50%
c x 16.98 24 213 0 20 5657 27 58879 12229 3.1 18 6 2 6 27% 15734 77466 16324 50%
c = 17.32 24 213 0 20 5657 27 58879 12229 3.1 18 6 2 6 27% 17552 77466 15415 47%
c d 17.33 24 213 0 20 5657 27 58879 11697 3.1 18 6 2 6 27% 15646 77466 15414 47%
c t 17.36 24 213 0 20 5657 27 58879 11697 3.1 18 6 2 6 27% 15200 77466 15414 47%
c f 17.43 24 213 0 20 5657 27 58879 11697 3.1 18 6 2 6 27% 15387 76687 15514 47%
c u 17.53 24 213 0 20 5657 27 58879 10786 3.1 18 6 2 6 27% 15392 76687 15514 47%
c v 17.61 24 213 0 20 5657 27 58879 10109 3.1 18 6 2 6 27% 15392 76687 15514 47%
c w 17.62 24 213 0 20 5657 27 58879 10102 3.1 18 6 2 6 27% 15392 76687 15514 47%
c x 17.77 24 213 0 20 5657 27 58879 10087 3.1 18 6 2 6 27% 15607 70920 15514 47%
c = 18.12 24 213 0 20 5657 27 58879 10087 3.1 18 6 2 6 27% 15941 70920 15347 47%
c d 18.13 24 213 0 20 5657 27 58879 10053 3.1 18 6 2 6 27% 15602 70920 15347 47%
c t 18.16 24 213 0 20 5657 27 58879 10053 3.1 18 6 2 6 27% 15515 70920 15347 47%
c
c  seconds   switched     rate         size/glue tier1    binary          remaining
c         MB   reductions   conflicts        size  tier2      irredundant
c           level   restarts      redundant    glue   trail          variables
c
c f 18.19 24 213 0 20 5657 27 58879 10053 3.1 18 6 2 6 27% 15524 70785 15365 47%
c - 19.08 24 207 0 21 6064 26 62673 11984 3.1 18 6 2 6 27% 15573 70784 15365 47%
c - 19.90 24 204 0 22 6465 26 67255 14437 3.1 18 6 2 6 27% 15651 70782 15365 47%
c o 20.31 24 201 0 22 6648 25 70073 16918 3.1 18 6 2 6 27% 15701 70781 15365 47%
c - 20.80 24 199 0 23 6880 25 71948 16514 3.1 19 6 2 5 27% 15736 70781 15365 47%
c - 21.85 24 194 0 24 7354 25 76744 18320 3.0 19 6 2 5 27% 15807 70781 15365 47%
c c 22.66 24 191 0 24 7676 25 79945 21211 3.0 19 6 2 5 27% 15907 70438 15296 47%
c d 22.67 24 191 0 24 7676 25 79945 20929 3.0 19 6 2 5 27% 15769 70438 15296 47%
c u 22.80 24 191 0 24 7676 25 79945 17626 3.0 19 6 2 5 27% 15778 70438 15296 47%
c v 22.91 24 191 0 24 7676 25 79945 16152 3.0 19 6 2 5 27% 15784 70438 15296 47%
c w 22.98 24 191 0 24 7676 25 79945 16140 3.0 19 6 2 5 27% 15784 70438 15296 47%
c x 23.09 24 191 0 24 7676 25 79945 16136 3.0 19 6 2 5 27% 15853 69888 15296 47%
c = 23.56 24 191 0 24 7676 25 79945 16136 3.0 19 6 2 5 27% 16407 69857 15019 46%
c d 23.57 24 191 0 24 7676 25 79945 15853 3.0 19 6 2 5 27% 15796 69857 15019 46%
c t 23.60 24 191 0 24 7676 25 79945 15853 3.0 19 6 2 5 27% 15637 69857 15019 46%
c f 23.63 24 191 0 24 7676 25 79945 15853 3.0 19 6 2 5 27% 15670 69691 15042 46%
c u 23.80 24 191 0 24 7676 25 79945 14663 3.0 19 6 2 5 27% 15678 69691 15042 46%
c v 23.89 24 191 0 24 7676 25 79945 13983 3.0 19 6 2 5 27% 15679 69691 15042 46%
c w 23.99 24 191 0 24 7676 25 79945 13958 3.0 19 6 2 5 27% 15679 69691 15042 46%
c x 24.09 24 191 0 24 7676 25 79945 13957 3.0 19 6 2 5 27% 15698 69332 15042 46%
c
c  seconds   switched     rate         size/glue tier1    binary          remaining
c         MB   reductions   conflicts        size  tier2      irredundant
c           level   restarts      redundant    glue   trail          variables
c
c = 24.54 24 191 0 24 7676 25 79945 13957 3.0 19 6 2 5 27% 15859 69104 14934 46%
c d 24.55 24 191 0 24 7676 25 79945 13840 3.0 19 6 2 5 27% 15699 69104 14934 46%
c t 24.58 24 191 0 24 7676 25 79945 13840 3.0 19 6 2 5 27% 15652 69104 14934 46%
c f 24.60 24 191 0 24 7676 25 79945 13840 3.0 19 6 2 5 27% 15653 69090 14936 46%
c i 24.92 24 188 0 24 7779 24 81583 15270 3.0 19 6 2 5 27% 15691 69088 14935 46%
c - 24.95 24 188 0 25 7789 24 81642 13595 3.0 19 6 2 5 27% 15681 69088 14935 46%
c i 25.03 24 188 0 25 7809 24 82063 13949 3.0 19 6 2 5 27% 15692 69088 14934 46%
c i 25.22 24 187 0 25 7907 24 82863 14655 3.0 19 6 2 5 28% 15706 69080 14933 46%
c i 25.63 24 184 0 25 8068 24 85018 16576 3.0 18 6 2 5 27% 15744 69075 14932 46%
c i 25.73 24 183 0 25 8106 24 85681 17142 3.0 18 6 2 5 27% 15760 69073 14931 46%
c i 25.81 24 183 0 25 8165 24 86082 17491 3.0 18 6 2 5 27% 15771 69072 14930 46%
c i 25.86 24 182 0 25 8169 24 86480 17829 3.0 18 6 2 5 27% 15781 69072 14929 46%
c - 25.91 24 182 0 26 8182 24 86643 15885 3.0 18 6 2 5 27% 15758 69072 14929 46%
c i 26.08 24 181 0 26 8237 24 87419 16607 3.0 18 6 2 5 28% 15772 69072 14928 46%
c i 26.62 24 179 0 26 8489 24 89321 18321 2.9 18 6 2 5 28% 15803 69072 14927 46%
c i 26.79 24 178 0 26 8549 23 90249 19180 2.9 18 6 2 5 28% 15816 69072 14926 46%
c - 27.11 24 176 0 27 8743 23 91742 18079 2.9 18 6 2 5 28% 15826 69072 14926 46%
c i 27.23 24 174 0 27 8793 23 92740 18926 2.9 18 6 2 5 28% 15850 69071 14925 46%
c i 27.55 24 171 0 27 8899 23 94440 20411 2.9 18 6 2 5 28% 15880 69069 14924 46%
c i 27.69 24 169 0 27 8979 22 95624 21456 2.9 18 6 2 5 27% 15901 69069 14923 46%
c
c  seconds   switched     rate         size/glue tier1    binary          remaining
c         MB   reductions   conflicts        size  tier2      irredundant
c           level   restarts      redundant    glue   trail          variables
c
c s 27.72 24 169 0 27 8981 22 95786 21600 2.9 18 6 2 5 27% 15903 67143 14923 46%
c e 27.88 24 169 0 27 8981 22 95786 21600 2.9 18 6 2 5 27% 12147 77910 12674 39%
c 2 27.89 24 169 0 27 8981 22 95786 21600 2.9 18 6 2 5 27% 12137 77910 12674 39%
c s 27.93 24 169 0 27 8981 22 95786 21600 2.9 18 6 2 5 27% 12170 76356 12674 39%
c e 27.96 24 169 0 27 8981 22 95786 21600 2.9 18 6 2 5 27% 12048 76595 12634 39%
c ^ 27.96 24 169 0 27 8981 22 95786 21600 2.9 18 6 2 5 27% 12048 76595 12634 39%
c - 28.17 23 167 0 28 9105 22 96938 14199 2.9 18 6 2 5 27% 12059 76594 12634 39%
c i 28.25 23 167 0 28 9171 22 97413 14632 2.8 18 6 2 5 27% 12067 76594 12633 39%
c i 28.42 23 165 0 28 9275 22 98848 15916 2.8 17 6 2 5 27% 12077 76592 12632 39%
c i 28.42 23 165 0 28 9286 22 98947 15977 2.8 17 6 2 5 27% 12082 76592 12631 39%
c i 28.54 23 164 0 28 9367 22 99426 16405 2.8 17 6 2 5 27% 12092 76592 12630 39%
c i 28.57 23 163 0 28 9394 22 99777 16699 2.8 17 6 2 5 27% 12102 76592 12629 39%
c i 28.58 23 163 0 28 9399 22 100039 16922 2.8 17 6 2 5 27% 12105 76592 12628 39%
c i 28.60 23 162 0 28 9422 22 100287 17141 2.8 17 6 2 5 27% 12108 76592 12627 39%
c - 28.99 23 160 0 29 9695 22 102229 16467 2.8 17 6 2 5 27% 12102 76590 12627 39%
c i 29.06 23 160 0 29 9752 22 102545 16760 2.8 17 6 2 5 27% 12106 76589 12626 39%
c i 29.07 23 160 0 29 9759 22 102606 16805 2.8 17 6 2 5 27% 12108 76588 12625 39%
c i 29.13 23 159 0 29 9789 21 102961 17113 2.8 17 6 2 5 27% 12109 76588 12624 39%
c i 29.14 23 159 0 29 9800 21 103260 17371 2.8 17 6 2 5 27% 12118 76587 12623 39%
c i 29.14 23 159 0 29 9800 21 103266 17371 2.8 17 6 2 5 27% 12120 76587 12622 39%
c
c  seconds   switched     rate          size/glue tier1    binary          remaining
c         MB   reductions   conflicts         size  tier2      irredundant
c           level   restarts       redundant    glue   trail          variables
c
c i 29.17 23 158 0 29 9812 21 103728 17773 2.8 17 6 2 5 27% 12131 76587 12621 39%
c i 29.22 23 157 0 29 9852 21 104206 18193 2.8 17 6 2 5 27% 12137 76587 12620 39%
c i 29.26 23 157 0 29 9860 21 104458 18402 2.8 17 6 2 5 27% 12144 76585 12452 38%
c d 29.30 23 157 0 29 9860 21 104569 17594 2.8 17 6 2 5 26% 12486 75132 12446 38%
c d 29.31 23 157 0 29 9860 21 104569 17568 2.8 17 6 2 5 26% 12280 75052 12345 38%
c b 29.32 23 157 0 29 9860 21 104569 17568 2.8 17 6 2 5 26% 12280 75052 12321 38%
c u 29.41 23 157 0 29 9860 21 104569 16395 2.8 17 6 2 5 26% 12340 75052 12297 38%
c } 29.41 23 157 0 29 9860 21 104569 16395 2.8 17 6 2 5 26% 12340 75052 12297 38%
c 0 29.41 23 157 0 29 9860 21 104569 16395 2.8 17 6 2 5 26% 12340 75052 12297 38%
c
c ---- [ result ] ------------------------------------------------------------
c
s UNSATISFIABLE
c
c ---- [ profiling ] ---------------------------------------------------------
c
c          20.36   69.23 %  search
c          20.36   69.23 %  focused
c           8.69   29.55 %  simplify
c           8.15   27.71 %  probe
c           3.32   11.29 %  sweep
c           2.95   10.05 %  vivify
c           0.73    2.47 %  eliminate
c           0.68    2.30 %  factor
c           0.53    1.80 %  substitute
c           0.43    1.45 %  congruence
c           0.32    1.08 %  preprocess
c           0.20    0.68 %  reduce
c           0.16    0.54 %  transitive
c           0.15    0.50 %  subsume
c           0.13    0.44 %  fastel
c           0.08    0.28 %  backbone
c           0.02    0.08 %  parse
c           0.02    0.06 %  lucky
c =============================================
c          29.41  100.00 %  total
c
c ---- [ statistics ] --------------------------------------------------------
c
c chronological:                         4260                4 %  conflicts
c conflicts:                           104569             3555.45 per second
c congruent:                             2791                9 %  variables
c decisions:                          2286702               21.87 per conflict
c eliminated:                           14567               44 %  variables
c factored:                              3621               11 %  variables
c fast_eliminated:                       8557               59 %  eliminated
c fast_strengthened:                      113                5 %  per strengthened
c fast_subsumed:                          202                1 %  per subsumed
c iterations:                              30                0 %  variables
c propagations:                     105777227          3596531    per second
c reductions:                              29             3606    interval
c reordered:                                4            26142    interval
c restarts:                              9860               11    interval
c strengthened:                          2240                0 %  checks
c substituted:                           9248               28 %  variables
c subsumed:                             16326                1 %  checks
c switched:                                 0                0    interval
c vivified:                             59662               16 %  checks
c
c ---- [ glue usage ] --------------------------------------------------------
c
c focused glue 2 used 53011 clauses 25.87% accumulated 70.36% tier1
c focused glue 3 used 24757 clauses 12.08% accumulated 82.44%
c focused glue 4 used 10754 clauses  5.25% accumulated 87.69%
c focused glue 5 used  6585 clauses  3.21% accumulated 90.90% tier2
c
c ---- [ resources ] ---------------------------------------------------------
c
c maximum-resident-set-size:         27213824 bytes         26 MB
c process-time:                            29s              29.41 seconds
c
c ---- [ shutting down ] -----------------------------------------------------
c
c exit 20
